7,1,3,1,11,1,2,1,4,1,13,3,9,1,1,1,12,1,10,1,8,1,6,1,8,4;7,2,3,2,11,2,13,2,2,2,4,2,1,2,5,1,5,2,9,2,8,2,10,2,6,2;7,3,3,3,11,3,2,3,4,3,1,3,12,2,5,3,12,3,9,3,8,3,10,3,6,3;13,1,7,4,3,4,13,4,11,4,2,4,4,4,1,4,5,4,12,4,9,4,10,4,6,4;
